
Gurobi 9.5.0 (linux64) logging started Tue Nov  7 13:30:02 2023

Set parameter LogFile to value "/lustre1/scratch/348/vsc34888/JointResearch/05.Models/06.Benchmarking/E.Representative_days_based_on_Line_Benefits_OptModel/9n_ByStages_nc50/openStarNet_9n_ByStages_nc50.log"
Set parameter Method to value 2
Set parameter MIPFocus to value 1
Set parameter Presolve to value 2
Set parameter RINS to value 100
Set parameter MIPGap to value 0.01
Set parameter Threads to value 36
Set parameter TimeLimit to value 604800
Set parameter IterationLimit to value 760000000
Gurobi Optimizer version 9.5.0 build v9.5.0rc5 (linux64)
Thread count: 36 physical cores, 36 logical processors, using up to 36 threads
Optimize a model with 13103 rows, 6948 columns and 40802 nonzeros
Model fingerprint: 0xd616e40d
Variable types: 6912 continuous, 36 integer (36 binary)
Coefficient statistics:
  Matrix range     [9e-04, 2e+03]
  Objective range  [1e+00, 1e+00]
  Bounds range     [8e-04, 2e+00]
  RHS range        [8e-04, 1e+00]
Presolve removed 4253 rows and 2154 columns
Presolve time: 0.06s
Presolved: 8850 rows, 4794 columns, 31308 nonzeros
Variable types: 4758 continuous, 36 integer (36 binary)
Found heuristic solution: objective 846.9633576
Root relaxation presolved: 8850 rows, 4794 columns, 31308 nonzeros

Root barrier log...

Ordering time: 0.00s

Barrier statistics:
 Dense cols : 36
 AA' NZ     : 1.191e+05
 Factor NZ  : 2.388e+05 (roughly 7 MB of memory)
 Factor Ops : 9.771e+06 (less than 1 second per iteration)
 Threads    : 36

                  Objective                Residual
Iter       Primal          Dual         Primal    Dual     Compl     Time
   0   3.60973595e+05 -5.51281821e+07  6.17e+00 5.21e+02  9.42e+03     0s
   1   4.88914986e+04 -1.55929755e+07  6.76e-01 1.93e-09  1.22e+03     0s
   2   1.46729833e+04 -2.10494278e+06  4.44e-03 1.07e-09  1.22e+02     0s
   3   7.12932894e+03 -3.90577919e+04  3.79e-13 2.01e-11  2.66e+00     0s
   4   9.08366076e+02 -9.46786032e+03  4.59e-13 4.37e-12  5.97e-01     0s
   5   5.80540901e+02 -3.21310814e+03  2.15e-13 1.82e-12  2.18e-01     0s
   6   4.07812397e+02 -1.09245091e+03  1.95e-13 1.82e-12  8.63e-02     0s
   7   2.93438134e+02 -5.35404781e+02  1.60e-13 1.82e-12  4.77e-02     0s
   8   1.78782890e+02 -1.89391277e+02  2.32e-13 3.64e-12  2.12e-02     0s
   9   1.23588774e+02  2.24694731e+01  2.65e-13 1.82e-12  5.82e-03     0s
  10   1.04382726e+02  7.42222048e+01  1.56e-12 1.82e-12  1.73e-03     0s
  11   9.68070181e+01  8.05962190e+01  2.61e-12 9.09e-13  9.32e-04     0s
  12   9.39544420e+01  8.44604458e+01  1.92e-12 9.09e-13  5.46e-04     0s
  13   9.16044046e+01  8.94186824e+01  1.48e-12 1.82e-12  1.26e-04     0s
  14   9.13156619e+01  9.11665183e+01  7.12e-12 1.82e-12  8.58e-06     0s
  15   9.12397928e+01  9.11750877e+01  3.00e-10 1.82e-12  3.72e-06     0s
  16   9.11929440e+01  9.11916986e+01  5.64e-11 1.82e-12  7.16e-08     0s
  17   9.11925090e+01  9.11925074e+01  5.59e-10 3.64e-12  9.00e-11     0s
  18   9.11925083e+01  9.11925083e+01  7.40e-10 1.82e-12  3.06e-15     0s

Barrier solved model in 18 iterations and 0.31 seconds (0.22 work units)
Optimal objective 9.11925083e+01


Root relaxation: objective 9.119251e+01, 426 iterations, 0.23 seconds (0.10 work units)

    Nodes    |    Current Node    |     Objective Bounds      |     Work
 Expl Unexpl |  Obj  Depth IntInf | Incumbent    BestBd   Gap | It/Node Time

     0     0   91.19251    0    6  846.96336   91.19251  89.2%     -    0s
H    0     0                     776.2780538   91.19251  88.3%     -    0s
H    0     0                     738.7695556   91.19251  87.7%     -    0s
H    0     0                      99.9576373   99.24197  0.72%     -    0s
     0     0   99.24197    0    2   99.95764   99.24197  0.72%     -    0s

Cutting planes:
  Gomory: 1
  Implied bound: 1
  MIR: 154

Explored 1 nodes (600 simplex iterations) in 0.47 seconds (0.31 work units)
Thread count was 36 (of 36 available processors)

Solution count 4: 99.9576 738.77 776.278 846.963 

Optimal solution found (tolerance 1.00e-02)
Best objective 9.995763732235e+01, best bound 9.924196953166e+01, gap 0.7160%

Gurobi 9.5.0 (linux64) logging started Tue Nov  7 13:30:04 2023

Set parameter LogFile to value "/lustre1/scratch/348/vsc34888/JointResearch/05.Models/06.Benchmarking/E.Representative_days_based_on_Line_Benefits_OptModel/9n_ByStages_nc50/openStarNet_9n_ByStages_nc50.log"
Set parameter Method to value 2
Set parameter MIPFocus to value 1
Set parameter Presolve to value 2
Set parameter RINS to value 100
Set parameter MIPGap to value 0.01
Set parameter Threads to value 36
Set parameter TimeLimit to value 604800
Set parameter IterationLimit to value 760000000
No parameters matching 'relax_integrality' found
Gurobi Optimizer version 9.5.0 build v9.5.0rc5 (linux64)
Thread count: 36 physical cores, 36 logical processors, using up to 36 threads
Optimize a model with 13103 rows, 6912 columns and 33566 nonzeros
Model fingerprint: 0xf82573e4
Coefficient statistics:
  Matrix range     [9e-04, 2e+03]
  Objective range  [1e+00, 1e+00]
  Bounds range     [8e-04, 2e+00]
  RHS range        [8e-04, 2e+01]
Presolve removed 11303 rows and 3804 columns
Presolve time: 0.01s
Presolved: 1800 rows, 3108 columns, 6858 nonzeros

Ordering time: 0.00s

Barrier statistics:
 AA' NZ     : 5.050e+03
 Factor NZ  : 1.850e+04 (roughly 2 MB of memory)
 Factor Ops : 2.279e+05 (less than 1 second per iteration)
 Threads    : 1

                  Objective                Residual
Iter       Primal          Dual         Primal    Dual     Compl     Time
   0   4.07792459e+05 -3.20947604e+07  4.10e+00 1.82e-12  1.12e+04     0s
   1   5.97325339e+04 -6.35932517e+06  4.32e-01 8.00e-12  1.33e+03     0s
   2   1.78310372e+04 -1.02511355e+06  1.62e-02 7.55e-12  1.58e+02     0s
   3   8.92598149e+03 -4.48517135e+04  3.11e-14 4.77e-12  7.89e+00     0s
   4   1.32206851e+03 -8.15574709e+03  1.05e-13 2.73e-12  1.39e+00     0s
   5   6.85610948e+02 -2.00751248e+03  7.99e-14 1.82e-12  3.95e-01     0s
   6   3.80149278e+02 -7.03315847e+02  7.55e-14 9.09e-13  1.59e-01     0s
   7   2.50862233e+02 -1.76848569e+02  5.42e-14 1.82e-12  6.28e-02     0s
   8   1.41542948e+02 -1.72147660e+01  2.24e-13 1.82e-12  2.33e-02     0s
   9   1.16292446e+02  7.01774521e+01  2.20e-13 3.64e-12  6.77e-03     0s
  10   1.04614402e+02  8.77121474e+01  1.51e-13 1.82e-12  2.48e-03     0s
  11   1.01199438e+02  9.52501650e+01  7.89e-13 1.82e-12  8.73e-04     0s
  12   1.00145029e+02  9.87935032e+01  2.43e-12 1.82e-12  1.98e-04     0s
  13   9.99743403e+01  9.99356567e+01  8.77e-13 3.64e-12  5.68e-06     0s
  14   9.99576569e+01  9.99576016e+01  1.78e-12 1.82e-12  8.10e-09     0s
  15   9.99576373e+01  9.99576373e+01  1.80e-12 1.82e-12  8.10e-12     0s

Barrier solved model in 15 iterations and 0.03 seconds (0.03 work units)
Optimal objective 9.99576373e+01

Crossover log...

     587 DPushes remaining with DInf 0.0000000e+00                 0s
       0 DPushes remaining with DInf 0.0000000e+00                 0s

      56 PPushes remaining with PInf 0.0000000e+00                 0s
       0 PPushes remaining with PInf 0.0000000e+00                 0s

  Push phase complete: Pinf 0.0000000e+00, Dinf 9.7499266e-14      0s

Iteration    Objective       Primal Inf.    Dual Inf.      Time
     110    9.9957637e+01   0.000000e+00   0.000000e+00      0s

Solved in 110 iterations and 0.04 seconds (0.03 work units)
Optimal objective  9.995763732e+01

Gurobi 11.0.0 (linux64) logging started Wed Apr 10 21:40:05 2024

Set parameter LogFile to value "/lustre1/scratch/348/vsc34888/JointResearch/05.Models/06.Benchmarking/E.Representative_days_based_on_Line_Benefits_OptModel/9n_ByStages_nc50/openStarNet_9n_ByStages_nc50.log"
Set parameter Method to value 2
Set parameter MIPFocus to value 1
Set parameter Presolve to value 2
Set parameter RINS to value 100
Set parameter MIPGap to value 0.01
Set parameter Threads to value 36
Set parameter TimeLimit to value 259200
Set parameter IterationLimit to value 760000000
Gurobi Optimizer version 11.0.0 build v11.0.0rc2 (linux64 - "Rocky Linux 8.8 (Green Obsidian)")

CPU model: Intel(R) Xeon(R) Gold 6140 CPU @ 2.30GHz, instruction set [SSE2|AVX|AVX2|AVX512]
Thread count: 36 physical cores, 36 logical processors, using up to 36 threads

Optimize a model with 13103 rows, 6896 columns and 39396 nonzeros
Model fingerprint: 0xc119481a
Variable types: 6860 continuous, 36 integer (36 binary)
Coefficient statistics:
  Matrix range     [8e-04, 2e+03]
  Objective range  [1e+00, 1e+00]
  Bounds range     [4e-04, 2e+00]
  RHS range        [4e-04, 1e+00]
Presolve removed 4453 rows and 2354 columns
Presolve time: 0.07s
Presolved: 8650 rows, 4542 columns, 29506 nonzeros
Variable types: 4506 continuous, 36 integer (36 binary)
Found heuristic solution: objective 883.2957401
Root relaxation presolved: 8650 rows, 4542 columns, 29506 nonzeros

Root barrier log...

Ordering time: 0.01s

Barrier statistics:
 Dense cols : 36
 AA' NZ     : 1.024e+05
 Factor NZ  : 2.029e+05 (roughly 7 MB of memory)
 Factor Ops : 6.756e+06 (less than 1 second per iteration)
 Threads    : 36

                  Objective                Residual
Iter       Primal          Dual         Primal    Dual     Compl     Time
   0   4.68137755e+05 -4.77187450e+07  7.12e+00 4.88e+02  1.09e+04     0s
   1   7.23875862e+04 -1.92169797e+07  9.73e-01 1.81e-09  1.66e+03     0s
   2   1.68600838e+04 -4.39657392e+06  2.70e-02 3.53e-09  2.67e+02     0s
   3   9.12769290e+03 -8.81473216e+04  4.00e-14 7.58e-11  5.76e+00     0s
   4   1.60499965e+03 -2.01874562e+04  4.26e-14 1.15e-11  1.29e+00     0s
   5   7.94626343e+02 -5.86484305e+03  3.73e-14 3.24e-12  3.94e-01     0s
   6   5.56497202e+02 -2.07958361e+03  9.77e-15 1.82e-12  1.56e-01     0s
   7   4.00047753e+02 -5.48726321e+02  1.60e-14 3.64e-12  5.62e-02     0s
   8   2.20904421e+02 -8.49054331e+01  9.50e-14 1.82e-12  1.81e-02     0s
   9   1.16662521e+02  4.87639727e+01  4.60e-13 1.82e-12  4.02e-03     0s
  10   1.04503666e+02  8.15956071e+01  2.08e-12 1.82e-12  1.36e-03     0s
  11   9.79377501e+01  8.63944034e+01  1.09e-12 1.82e-12  6.84e-04     0s
  12   9.65909258e+01  8.88254347e+01  4.87e-12 1.82e-12  4.60e-04     0s
  13   9.40221300e+01  8.91107488e+01  3.37e-12 9.09e-13  2.91e-04     0s
  14   9.27229815e+01  9.17702387e+01  4.47e-12 2.73e-12  5.64e-05     0s
  15   9.24961356e+01  9.23440540e+01  7.73e-12 1.82e-12  9.01e-06     0s
  16   9.24017317e+01  9.23995292e+01  3.01e-11 1.82e-12  1.30e-07     1s
  17   9.24009976e+01  9.24009971e+01  1.08e-09 1.82e-12  3.05e-11     1s

Barrier solved model in 17 iterations and 0.52 seconds (0.20 work units)
Optimal objective 9.24009976e+01


Root relaxation: objective 9.240100e+01, 441 iterations, 0.48 seconds (0.09 work units)

    Nodes    |    Current Node    |     Objective Bounds      |     Work
 Expl Unexpl |  Obj  Depth IntInf | Incumbent    BestBd   Gap | It/Node Time

     0     0   92.40100    0    6  883.29574   92.40100  89.5%     -    0s
H    0     0                     736.3478063   92.40100  87.5%     -    0s
H    0     0                     112.2446651   92.40100  17.7%     -    0s
     0     0  100.45046    0    1  112.24467  100.45046  10.5%     -    1s
H    0     0                     101.2196651  100.45046  0.76%     -    1s

Cutting planes:
  Gomory: 1
  Implied bound: 1
  MIR: 43
  Relax-and-lift: 4

Explored 1 nodes (563 simplex iterations) in 1.11 seconds (0.30 work units)
Thread count was 36 (of 36 available processors)

Solution count 4: 101.22 112.245 736.348 883.296 

Optimal solution found (tolerance 1.00e-02)
Best objective 1.012196650664e+02, best bound 1.004504584953e+02, gap 0.7599%

Gurobi 11.0.0 (linux64) logging started Wed Apr 10 21:40:08 2024

Set parameter LogFile to value "/lustre1/scratch/348/vsc34888/JointResearch/05.Models/06.Benchmarking/E.Representative_days_based_on_Line_Benefits_OptModel/9n_ByStages_nc50/openStarNet_9n_ByStages_nc50.log"
Set parameter Method to value 2
Set parameter MIPFocus to value 1
Set parameter Presolve to value 2
Set parameter RINS to value 100
Set parameter MIPGap to value 0.01
Set parameter Threads to value 36
Set parameter TimeLimit to value 259200
Set parameter IterationLimit to value 760000000
Gurobi Optimizer version 11.0.0 build v11.0.0rc2 (linux64 - "Rocky Linux 8.8 (Green Obsidian)")

CPU model: Intel(R) Xeon(R) Gold 6140 CPU @ 2.30GHz, instruction set [SSE2|AVX|AVX2|AVX512]
Thread count: 36 physical cores, 36 logical processors, using up to 36 threads

Optimize a model with 13103 rows, 6860 columns and 32160 nonzeros
Model fingerprint: 0xa2544623
Coefficient statistics:
  Matrix range     [8e-04, 2e+03]
  Objective range  [1e+00, 1e+00]
  Bounds range     [4e-04, 2e+00]
  RHS range        [4e-04, 2e+01]
Presolve removed 11984 rows and 4585 columns
Presolve time: 0.02s
Presolved: 1119 rows, 2275 columns, 4863 nonzeros

Ordering time: 0.00s

Barrier statistics:
 AA' NZ     : 2.176e+03
 Factor NZ  : 9.715e+03 (roughly 1 MB of memory)
 Factor Ops : 1.054e+05 (less than 1 second per iteration)
 Threads    : 1

                  Objective                Residual
Iter       Primal          Dual         Primal    Dual     Compl     Time
   0   4.24679471e+05 -7.57453890e+06  6.53e+00 1.44e+03  9.07e+03     0s
   1   5.00428246e+04 -4.55593320e+06  5.26e-01 8.19e-12  1.31e+03     0s
   2   1.47655875e+04 -7.42769391e+05  1.94e-02 6.23e-12  1.51e+02     0s
   3   6.69699005e+03 -2.07536315e+04  2.13e-14 1.02e-11  5.28e+00     0s
   4   1.10466143e+03 -4.06956303e+03  1.11e-14 3.59e-12  9.95e-01     0s
   5   5.49486599e+02 -9.85898790e+02  8.49e-15 9.09e-13  2.95e-01     0s
   6   3.53300584e+02 -2.29428448e+02  4.91e-15 9.09e-13  1.12e-01     0s
   7   2.32550457e+02 -5.25379871e+01  1.78e-14 1.82e-12  5.48e-02     0s
   8   1.48084515e+02  5.04289465e+01  4.62e-14 9.09e-13  1.88e-02     0s
   9   1.14061759e+02  9.07804619e+01  4.53e-14 9.09e-13  4.48e-03     0s
  10   1.04997692e+02  9.87561414e+01  4.76e-14 9.09e-13  1.20e-03     0s
  11   1.02023156e+02  1.00599366e+02  2.03e-13 9.09e-13  2.74e-04     0s
  12   1.01314490e+02  1.01085075e+02  2.36e-13 1.82e-12  4.41e-05     0s
  13   1.01223258e+02  1.01211730e+02  1.08e-12 1.82e-12  2.22e-06     0s
  14   1.01219669e+02  1.01219657e+02  4.90e-14 1.82e-12  2.22e-09     0s
  15   1.01219665e+02  1.01219665e+02  5.50e-14 1.82e-12  2.22e-12     0s

Barrier solved model in 15 iterations and 0.04 seconds (0.02 work units)
Optimal objective 1.01219665e+02

Crossover log...

     575 DPushes remaining with DInf 0.0000000e+00                 0s
       0 DPushes remaining with DInf 0.0000000e+00                 0s

       4 PPushes remaining with PInf 0.0000000e+00                 0s
       0 PPushes remaining with PInf 0.0000000e+00                 0s

  Push phase complete: Pinf 0.0000000e+00, Dinf 7.1762041e-14      0s

Iteration    Objective       Primal Inf.    Dual Inf.      Time
      63    1.0121967e+02   0.000000e+00   0.000000e+00      0s

Solved in 63 iterations and 0.05 seconds (0.03 work units)
Optimal objective  1.012196651e+02
